id: 1119
name: n15-3
group: miplib2010
method: 2

Gurobi 7.0.2 (linux64, Matlab) logging started Mon Mar 26 10:15:11 2018


Gurobi 7.0.2 (linux64) logging started Mon Mar 26 10:15:11 2018

Optimize a model with 29494 rows, 153140 columns and 611000 nonzeros
Coefficient statistics:
  Matrix range     [1e+00, 3e+02]
  Objective range  [1e+00, 3e+02]
  Bounds range     [1e+03, 1e+03]
  RHS range        [1e+00, 5e+02]
Presolve removed 650 rows and 16 columns
Presolve time: 0.32s
Presolved: 28844 rows, 153124 columns, 578768 nonzeros

Ordering time: 0.26s

Barrier statistics:
 AA' NZ     : 6.207e+05
 Factor NZ  : 4.739e+06 (roughly 110 MBytes of memory)
 Factor Ops : 1.689e+09 (less than 1 second per iteration)
 Threads    : 4

                  Objective                Residual
Iter       Primal          Dual         Primal    Dual     Compl     Time
   0   2.91523515e+08 -8.19530716e+08  1.58e+05 5.75e+00  6.45e+05     1s
   1   3.54835604e+07 -6.34652745e+08  7.02e+03 1.73e+03  4.07e+04     1s
   2   2.87335508e+07 -3.44385141e+08  2.19e-09 9.52e+02  2.89e+04     1s
   3   2.19877335e+07 -1.70018911e+05  1.27e-08 1.36e-12  1.43e+02     1s
   4   2.39893605e+05  3.08240466e+02  1.96e-11 1.36e-12  1.55e+00     1s
   5   5.38455567e+04  1.17454322e+04  1.53e-11 9.09e-13  2.73e-01     2s
   6   3.22322378e+04  1.73541410e+04  6.62e-12 9.09e-13  9.63e-02     2s
   7   2.59576977e+04  2.06006245e+04  1.62e-11 9.09e-13  3.47e-02     2s
   8   2.42704863e+04  2.22991936e+04  1.67e-11 9.09e-13  1.28e-02     2s
   9   2.38238125e+04  2.36417935e+04  8.98e-12 9.09e-13  1.18e-03     2s
  10   2.37042341e+04  2.37038463e+04  6.16e-11 9.09e-13  2.51e-06     2s
  11   2.37039415e+04  2.37039411e+04  3.93e-09 1.36e-12  2.51e-09     2s
  12   2.37039412e+04  2.37039412e+04  5.87e-12 9.09e-13  2.51e-12     2s

Barrier solved model in 12 iterations and 2.39 seconds
Optimal objective 2.37039412e+04

Crossover log...

       0 DPushes remaining with DInf 5.8080207e-12                 3s

     427 PPushes remaining with PInf 0.0000000e+00                 3s
       0 PPushes remaining with PInf 0.0000000e+00                 3s

  Push phase complete: Pinf 0.0000000e+00, Dinf 6.2378991e-12      3s

Iteration    Objective       Primal Inf.    Dual Inf.      Time
   26369    2.3703941e+04   0.000000e+00   0.000000e+00      3s
   26369    2.3703941e+04   0.000000e+00   0.000000e+00      3s

Solved in 26369 iterations and 2.73 seconds
Optimal objective  2.370394118e+04
status: OPTIMAL
